data;

param num_top:=4;

#nodes and edges of the physical network
param n := 7;

set E := (1,2) (1,7) (2,3) (2,6) (2,7) (3,4) (3,6) (4,5) (4,6) (5,6) (6,7) ;

#nodes and edges of the virtual networks
set Nl[1] := 3 2 6 4 1 ;
set Nl[2] := 2 6 3 7 4 ;
set Nl[3] := 6 5 7 4 2 ;
set Nl[4] := 3 7 4 1 6 ;

set El[1] := (2,3) (2,6) (4,6) (1,4) (1,3) (1,2) (1,6) (3,4) (2,4) (3,6) ;
set El[2] := (2,6) (3,6) (3,7) (4,7) (2,4) (2,7) (3,4) (6,7) (4,6) (2,3) ;
set El[3] := (5,6) (5,7) (4,7) (2,4) (2,6) (4,5) (2,7) (6,7) (4,6) (2,5) ;
set El[4] := (3,7) (4,7) (1,4) (1,6) (3,6) (1,3) (6,7) (4,6) (1,7) (3,4) ;
